************************************************************************
file with basedata            : cr548_.bas
initial value random generator: 764407085
************************************************************************
projects                      :  1
jobs (incl. supersource/sink ):  18
horizon                       :  133
RESOURCES
  - renewable                 :  5   R
  - nonrenewable              :  2   N
  - doubly constrained        :  0   D
************************************************************************
PROJECT INFORMATION:
pronr.  #jobs rel.date duedate tardcost  MPM-Time
    1     16      0       26       11       26
************************************************************************
PRECEDENCE RELATIONS:
jobnr.    #modes  #successors   successors
   1        1          3           2   3   4
   2        3          3           5   6   7
   3        3          3           8  14  17
   4        3          3           8  13  17
   5        3          2           8  11
   6        3          3           9  12  14
   7        3          3          11  13  15
   8        3          2          12  16
   9        3          3          10  15  16
  10        3          1          11
  11        3          1          17
  12        3          1          15
  13        3          1          14
  14        3          1          16
  15        3          1          18
  16        3          1          18
  17        3          1          18
  18        1          0        
************************************************************************
REQUESTS/DURATIONS:
jobnr. mode duration  R 1  R 2  R 3  R 4  R 5  N 1  N 2
------------------------------------------------------------------------
  1      1     0       0    0    0    0    0    0    0
  2      1     4       6    7    5    9    7    8    3
         2     5       6    5    5    9    4    8    3
         3    10       5    3    2    9    3    7    3
  3      1     3      10    7    8    7    9    9    8
         2     9       8    7    7    6    6    9    6
         3    10       5    6    6    5    2    9    3
  4      1     1       5    3    7    3    8    6    6
         2     3       5    3    7    3    8    6    5
         3     8       4    3    5    3    3    5    4
  5      1     2       8    2    6    8    4    5    4
         2     8       6    1    6    7    3    4    3
         3    10       6    1    6    3    3    2    2
  6      1     2       4    1    2    7    5    9    7
         2     8       3    1    1    6    4    9    6
         3     9       3    1    1    4    2    8    6
  7      1     4       4    3    3    4    6    9    2
         2     8       4    1    3    4    2    8    1
         3     8       3    1    1    3    1    9    1
  8      1     6       7    4    8   10    2    6    6
         2     8       6    3    6    6    2    6    5
         3     9       6    2    5    5    1    5    5
  9      1     6       7    6    5    3    3    5    5
         2     7       4    5    4    3    3    5    5
         3    10       3    4    3    3    3    4    4
 10      1     2       8    3    7    7    7    4    7
         2     4       8    3    5    5    5    4    5
         3     5       7    2    2    5    1    3    5
 11      1     6       6   10    7    8    5   10    5
         2     8       5    6    7    7    4    8    4
         3    10       4    4    6    6    4    7    4
 12      1     3       3    6    8    9    7    4    5
         2     5       3    5    8    7    5    4    5
         3     8       3    5    7    5    4    2    5
 13      1     5      10    6    9    2    8    4    8
         2     8       8    5    8    1    6    3    8
         3     9       4    5    7    1    4    3    4
 14      1     4       9    8    6    9    8    5    7
         2     6       9    6    4    7    7    4    6
         3     8       8    5    3    3    5    2    6
 15      1     1       9    7    7    4    6    4    6
         2     3       7    7    3    4    4    2    5
         3     3       6    5    6    1    5    2    5
 16      1     6       9    9    8    4    8   10    2
         2     8       9    9    7    4    6   10    2
         3     9       8    7    7    3    6   10    2
 17      1     6       6   10   10    6   10    7    6
         2     7       6   10   10    5   10    4    3
         3     7       4   10    9    4   10    6    2
 18      1     0       0    0    0    0    0    0    0
************************************************************************
RESOURCEAVAILABILITIES:
  R 1  R 2  R 3  R 4  R 5  N 1  N 2
   24   25   24   26   24   93   74
************************************************************************
